************************************************************************
file with basedata            : mf61_.bas
initial value random generator: 1980349431
************************************************************************
projects                      :  1
jobs (incl. supersource/sink ):  32
horizon                       :  244
RESOURCES
  - renewable                 :  2   R
  - nonrenewable              :  2   N
  - doubly constrained        :  0   D
************************************************************************
PROJECT INFORMATION:
pronr.  #jobs rel.date duedate tardcost  MPM-Time
    1     30      0       30       26       30
************************************************************************
PRECEDENCE RELATIONS:
jobnr.    #modes  #successors   successors
   1        1          3           2   3   4
   2        3          3           7  13  16
   3        3          1          21
   4        3          3           5   6   7
   5        3          3           9  17  18
   6        3          3           8  11  26
   7        3          1          30
   8        3          3          20  22  25
   9        3          3          10  19  24
  10        3          3          15  29  31
  11        3          2          12  28
  12        3          2          14  17
  13        3          2          23  25
  14        3          1          18
  15        3          1          16
  16        3          1          21
  17        3          2          20  29
  18        3          2          20  22
  19        3          2          22  25
  20        3          2          24  27
  21        3          1          26
  22        3          1          31
  23        3          3          24  26  28
  24        3          1          31
  25        3          2          27  28
  26        3          1          27
  27        3          1          30
  28        3          2          29  30
  29        3          1          32
  30        3          1          32
  31        3          1          32
  32        1          0        
************************************************************************
REQUESTS/DURATIONS:
jobnr. mode duration  R 1  R 2  N 1  N 2
------------------------------------------------------------------------
  1      1     0       0    0    0    0
  2      1     7      10    9    9    9
         2     8       6    7    7    5
         3     8       5    6    9    5
  3      1     4       6    6    5    8
         2     5       5    5    4    6
         3     9       5    4    4    3
  4      1     5       6    5   10    7
         2     7       3    4    9    7
         3     9       2    4    8    6
  5      1     1       4    8    5    9
         2     2       4    6    4    8
         3    10       4    5    2    5
  6      1     2       5    7    3   10
         2     9       5    7    2    8
         3    10       4    7    1    5
  7      1     7       9    3    8    9
         2     8       7    3    4    8
         3    10       5    3    3    7
  8      1     3       7    6    9    7
         2     7       7    5    5    6
         3     8       6    3    5    6
  9      1     5       8    2    8    5
         2    10       8    2    4    4
         3    10       7    2    2    5
 10      1     3       6    8    4    6
         2     6       5    8    3    6
         3     7       5    8    2    6
 11      1     2       4    6    6    7
         2     8       3    5    5    5
         3    10       3    3    4    4
 12      1     6       6    7    9    3
         2     7       3    6    7    2
         3     9       1    3    6    2
 13      1     5       6    5    6    6
         2     8       6    5    4    5
         3    10       3    4    2    5
 14      1     4       7    8    9   10
         2     7       7    5    9    5
         3     7       6    7    9    7
 15      1     6       9    6    5    9
         2     6       8    6    6    9
         3     7       5    6    3    5
 16      1     1       4    7    8    9
         2     2       4    5    8    7
         3     6       3    2    7    3
 17      1     2       8    5    5   10
         2     2       6    7    5   10
         3     8       6    3    5    9
 18      1     3       9    5    5    5
         2     3       9    7    4    6
         3     6       9    2    4    4
 19      1     2       6    3    3    3
         2     2       4    4    4    4
         3     7       2    3    2    2
 20      1     3       7    8    6    5
         2     6       7    8    5    5
         3    10       6    8    4    3
 21      1     4       7    8    8    9
         2     5       6    7    8    9
         3    10       5    7    7    9
 22      1     4       5   10    7    9
         2     8       4   10    5    8
         3    10       4    9    4    8
 23      1     2       9    7    7    3
         2     8       7    7    6    3
         3    10       6    5    6    2
 24      1     1       9    2    9    3
         2     3       8    2    9    3
         3     5       7    2    8    2
 25      1     3       8   10    8   10
         2     5       8    9    6   10
         3     6       8    9    4    9
 26      1     1       7   10    7    8
         2     2       7    7    7    8
         3     4       6    5    7    4
 27      1     2       8    5    5    4
         2     7       7    4    3    3
         3     9       7    3    2    2
 28      1     4       5    8    6    4
         2     4       6    9    6    3
         3     5       4    5    6    3
 29      1     4       4    4    6    9
         2     4       4    5    5   10
         3     6       3    4    3    6
 30      1     2       1    6    4    8
         2     5       1    4    4    6
         3     9       1    3    4    5
 31      1     3       2    6    9   10
         2     3       2    7    8   10
         3     9       1    4    8   10
 32      1     0       0    0    0    0
************************************************************************
RESOURCEAVAILABILITIES:
  R 1  R 2  N 1  N 2
   16   16  201  217
************************************************************************
